# Solution for model dual
# Objective value = 4.9947329718846531e+03
y[0] 0
y[1] 0
y[2] 0
y[3] 0
y[4] 0
y[5] 17
y[6] 8.9073297188465426e+02
y[7] 0
y[8] 0
y[9] 0
y[10] 17
y[11] 0
y[12] 2070
y[13] 1000
gamma[0,0] 0
gamma[0,1] 5.0251256281407036e-03
gamma[1,0] 1.0101010101010102e-02
gamma[1,1] 1.0101010101010102e-02
gamma[2,0] 4.1666666666666664e-02
gamma[2,1] 2.5641025641025640e-02
gamma[3,0] 0.0989010989010989
gamma[3,1] 5.2631578947368418e-02
gamma[4,0] 8.6956521739130432e-02
gamma[4,1] 4.7120418848167540e-02
gamma[5,0] 0
gamma[5,1] 5.4945054945054975e-03
gamma[6,0] 2.1507616831289287e+00
gamma[6,1] 1.4934065674617418e+00
gamma[7,0] 5.2631578947368418e-02
gamma[7,1] 1.0101010101010102e-02
gamma[8,0] 1.1111111111111110e-01
gamma[8,1] 3.6269430051813469e-02
gamma[9,0] 0.0989010989010989
gamma[9,1] 3.0927835051546393e-02
gamma[10,0] 1.2195121951219518e-02
gamma[10,1] 0
gamma[11,0] 1.4942528735632185e-01
gamma[11,1] 5.2631578947368418e-02
gamma[12,0] 3.6486486486486491e+00
gamma[12,1] 0
gamma[13,0] 0
gamma[13,1] 0
w[0,0] 0
w[0,1] 0
w[1,0] 0
w[1,1] 0
w[2,0] 0
w[2,1] 0
w[3,0] 0
w[3,1] 0
w[4,0] 0
w[4,1] 0
w[5,0] 0
w[5,1] 0
w[6,0] 0
w[6,1] 0
w[7,0] 0
w[7,1] 0
w[8,0] 0
w[8,1] 0
w[9,0] 0
w[9,1] 0
w[10,0] 0
w[10,1] 0
w[11,0] 0
w[11,1] 0
w[12,0] 0
w[12,1] 0
w[13,0] 6.4612998274526028e+00
w[13,1] 0
sigma[0,0] 1
sigma[0,1] 1.0050251256281406e+00
sigma[1,0] 1.0101010101010102e+00
sigma[1,1] 1.0101010101010102e+00
sigma[2,0] 1.0416666666666667e+00
sigma[2,1] 1.0256410256410255e+00
sigma[3,0] 1.0989010989010990e+00
sigma[3,1] 1.0526315789473684e+00
sigma[4,0] 1.0869565217391304e+00
sigma[4,1] 1.0471204188481675e+00
sigma[5,0] 1
sigma[5,1] 1.0054945054945055e+00
sigma[6,0] 9.2150761683128934e+01
sigma[6,1] 9.1493406567461747e+01
sigma[7,0] 1.0526315789473684e+00
sigma[7,1] 1.0101010101010102e+00
sigma[8,0] 1.1111111111111112e+00
sigma[8,1] 1.0362694300518134e+00
sigma[9,0] 1.0989010989010990e+00
sigma[9,1] 1.0309278350515463e+00
sigma[10,0] 1.0121951219512195e+00
sigma[10,1] 1
sigma[11,0] 1.1494252873563218e+00
sigma[11,1] 1.0526315789473684e+00
sigma[12,0] 9.3648648648648660e+01
sigma[12,1] 90
sigma[13,0] 10
sigma[13,1] 1.7693500862736988e+00
beta[0,0] 0
beta[0,1] 0
beta[1,0] 0
beta[1,1] 0
beta[2,0] 0
beta[2,1] 0
beta[3,0] 0
beta[3,1] 0
beta[4,0] 0
beta[4,1] 0
beta[5,0] 0
beta[5,1] 0
beta[6,0] 0
beta[6,1] 0
beta[7,0] 0
beta[7,1] 0
beta[8,0] 0
beta[8,1] 0
beta[9,0] 0
beta[9,1] 0
beta[10,0] 0
beta[10,1] 0
beta[11,0] 0
beta[11,1] 0
beta[12,0] 0
beta[12,1] 0
beta[13,0] 0
beta[13,1] 1.7693500862736986e+00
